# Objective value = 13099.03
I_0_0 1230
I_0_1 1471
I_0_2 1.3159999999999973e+03
I_0_3 1.4219999999999959e+03
I_0_4 1.2909999999999984e+03
I_0_5 1.5099999999999993e+03
I_0_6 1.9849999999999993e+03
I_1_0 126
I_1_1 63
I_1_2 126
I_1_3 6.3000000000001037e+01
I_1_4 126
I_1_5 6.3000000000000639e+01
I_1_6 6.4137885143147753e-13
I_2_0 61
I_2_1 0
I_2_2 61
I_2_3 61
I_2_4 0
I_2_5 61
I_2_6 0
I_3_0 22
I_3_1 11
I_3_2 1.5489831639570182e-12
I_3_3 22
I_3_4 22
I_3_5 11
I_3_6 0
I_4_0 110
I_4_1 110
I_4_2 110
I_4_3 55
I_4_4 110
I_4_5 55
I_4_6 0
I_5_0 14
I_5_1 0
I_5_2 14
I_5_3 2.9077682908825468e-12
I_5_4 14
I_5_5 14
I_5_6 0
I_6_0 99
I_6_1 99
I_6_2 99
I_6_3 99
I_6_4 99
I_6_5 99
I_6_6 0
I_7_0 78
I_7_1 39
I_7_2 78
I_7_3 3.9000000000000817e+01
I_7_4 78
I_7_5 39
I_7_6 0
I_8_0 21
I_8_1 0
I_8_2 2.0999999999999996e+01
I_8_3 0
I_8_4 21
I_8_5 21
I_8_6 0
I_9_0 64
I_9_1 32
I_9_2 0
I_9_3 6.3999999999999147e+01
I_9_4 64
I_9_5 32
I_9_6 0
I_10_0 160
I_10_1 160
I_10_2 160
I_10_3 160
I_10_4 160
I_10_5 80
I_10_6 0
q_1_0_0 0
q_1_0_1 0
q_1_0_2 0
q_1_0_3 0
q_1_0_4 0
q_1_0_5 0
q_1_1_0 0
q_1_1_1 0
q_1_1_2 0
q_1_1_3 1.6786572132332230e-12
q_1_1_4 6.3948846218409017e-13
q_1_1_5 0
q_1_2_0 0
q_1_2_1 4.9071857688431919e-13
q_1_2_2 0
q_1_2_3 1.2599999999999729e+02
q_1_2_4 0
q_1_2_5 0
q_1_3_0 0
q_1_3_1 126
q_1_3_2 0
q_1_3_3 0
q_1_3_4 0
q_1_3_5 0
q_1_4_0 0
q_1_4_1 0
q_1_4_2 0
q_1_4_3 0
q_1_4_4 0
q_1_4_5 0
q_2_0_0 0
q_2_0_1 0
q_2_0_2 0
q_2_0_3 0
q_2_0_4 0
q_2_0_5 0
q_2_1_0 0
q_2_1_1 0
q_2_1_2 6.0999999999999986e+01
q_2_1_3 0
q_2_1_4 1.2199999999999997e+02
q_2_1_5 0
q_2_2_0 0
q_2_2_1 122
q_2_2_2 0
q_2_2_3 0
q_2_2_4 0
q_2_2_5 0
q_2_3_0 0
q_2_3_1 0
q_2_3_2 0
q_2_3_3 0
q_2_3_4 0
q_2_3_5 0
q_2_4_0 0
q_2_4_1 0
q_2_4_2 0
q_2_4_3 0
q_2_4_4 0
q_2_4_5 0
q_3_0_0 0
q_3_0_1 0
q_3_0_2 3.2999999999999169e+01
q_3_0_3 1.0999999999999282e+01
q_3_0_4 0
q_3_0_5 0
q_3_1_0 0
q_3_1_1 0
q_3_1_2 0
q_3_1_3 0
q_3_1_4 0
q_3_1_5 0
q_3_2_0 0
q_3_2_1 0
q_3_2_2 0
q_3_2_3 0
q_3_2_4 0
q_3_2_5 0
q_3_3_0 0
q_3_3_1 0
q_3_3_2 0
q_3_3_3 0
q_3_3_4 0
q_3_3_5 0
q_3_4_0 0
q_3_4_1 0
q_3_4_2 0
q_3_4_3 0
q_3_4_4 0
q_3_4_5 0
q_4_0_0 0
q_4_0_1 0
q_4_0_2 0
q_4_0_3 0
q_4_0_4 0
q_4_0_5 0
q_4_1_0 55
q_4_1_1 0
q_4_1_2 0
q_4_1_3 0
q_4_1_4 0
q_4_1_5 0
q_4_2_0 0
q_4_2_1 0
q_4_2_2 0
q_4_2_3 0
q_4_2_4 0
q_4_2_5 0
q_4_3_0 0
q_4_3_1 0
q_4_3_2 0
q_4_3_3 0
q_4_3_4 0
q_4_3_5 0
q_4_4_0 0
q_4_4_1 5.5000000000000007e+01
q_4_4_2 0
q_4_4_3 110
q_4_4_4 0
q_4_4_5 0
q_5_0_0 0
q_5_0_1 0
q_5_0_2 2.9077682908825468e-12
q_5_0_3 2.7999999999997961e+01
q_5_0_4 1.3999999999999865e+01
q_5_0_5 0
q_5_1_0 0
q_5_1_1 28
q_5_1_2 0
q_5_1_3 0
q_5_1_4 0
q_5_1_5 0
q_5_2_0 0
q_5_2_1 0
q_5_2_2 0
q_5_2_3 0
q_5_2_4 0
q_5_2_5 0
q_5_3_0 0
q_5_3_1 0
q_5_3_2 0
q_5_3_3 0
q_5_3_4 0
q_5_3_5 0
q_5_4_0 0
q_5_4_1 0
q_5_4_2 0
q_5_4_3 0
q_5_4_4 0
q_5_4_5 0
q_6_0_0 99
q_6_0_1 0
q_6_0_2 99
q_6_0_3 99
q_6_0_4 99
q_6_0_5 0
q_6_1_0 0
q_6_1_1 99
q_6_1_2 0
q_6_1_3 0
q_6_1_4 0
q_6_1_5 0
q_6_2_0 0
q_6_2_1 0
q_6_2_2 0
q_6_2_3 0
q_6_2_4 0
q_6_2_5 0
q_6_3_0 0
q_6_3_1 0
q_6_3_2 0
q_6_3_3 0
q_6_3_4 0
q_6_3_5 0
q_6_4_0 0
q_6_4_1 0
q_6_4_2 0
q_6_4_3 0
q_6_4_4 0
q_6_4_5 0
q_7_0_0 0
q_7_0_1 78
q_7_0_2 0
q_7_0_3 0
q_7_0_4 0
q_7_0_5 0
q_7_1_0 0
q_7_1_1 0
q_7_1_2 0
q_7_1_3 7.7999999999998963e+01
q_7_1_4 0
q_7_1_5 0
q_7_2_0 0
q_7_2_1 0
q_7_2_2 0
q_7_2_3 0
q_7_2_4 0
q_7_2_5 0
q_7_3_0 0
q_7_3_1 0
q_7_3_2 0
q_7_3_3 0
q_7_3_4 0
q_7_3_5 0
q_7_4_0 0
q_7_4_1 0
q_7_4_2 0
q_7_4_3 0
q_7_4_4 0
q_7_4_5 0
q_8_0_0 0
q_8_0_1 4.1999999999999993e+01
q_8_0_2 0
q_8_0_3 2.0279580468738598e-12
q_8_0_4 2.0999999999998533e+01
q_8_0_5 0
q_8_1_0 0
q_8_1_1 0
q_8_1_2 0
q_8_1_3 4.1999999999999439e+01
q_8_1_4 0
q_8_1_5 0
q_8_2_0 0
q_8_2_1 0
q_8_2_2 0
q_8_2_3 0
q_8_2_4 0
q_8_2_5 0
q_8_3_0 0
q_8_3_1 0
q_8_3_2 0
q_8_3_3 0
q_8_3_4 0
q_8_3_5 0
q_8_4_0 0
q_8_4_1 0
q_8_4_2 0
q_8_4_3 0
q_8_4_4 0
q_8_4_5 0
q_9_0_0 0
q_9_0_1 0
q_9_0_2 0
q_9_0_3 0
q_9_0_4 0
q_9_0_5 0
q_9_1_0 0
q_9_1_1 0
q_9_1_2 0
q_9_1_3 0
q_9_1_4 0
q_9_1_5 0
q_9_2_0 0
q_9_2_1 0
q_9_2_2 9.5999999999999147e+01
q_9_2_3 0
q_9_2_4 0
q_9_2_5 0
q_9_3_0 0
q_9_3_1 0
q_9_3_2 0
q_9_3_3 3.2000000000000853e+01
q_9_3_4 0
q_9_3_5 0
q_9_4_0 0
q_9_4_1 0
q_9_4_2 0
q_9_4_3 0
q_9_4_4 0
q_9_4_5 0
q_10_0_0 0
q_10_0_1 0
q_10_0_2 0
q_10_0_3 0
q_10_0_4 0
q_10_0_5 0
q_10_1_0 80
q_10_1_1 0
q_10_1_2 80
q_10_1_3 0
q_10_1_4 0
q_10_1_5 0
q_10_2_0 0
q_10_2_1 0
q_10_2_2 0
q_10_2_3 0
q_10_2_4 0
q_10_2_5 0
q_10_3_0 0
q_10_3_1 0
q_10_3_2 0
q_10_3_3 80
q_10_3_4 0
q_10_3_5 0
q_10_4_0 0
q_10_4_1 80
q_10_4_2 0
q_10_4_3 0
q_10_4_4 0
q_10_4_5 0
y_0_0_0 1
y_0_0_1 1
y_0_0_2 1
y_0_0_3 1
y_0_0_4 1
y_0_0_5 0
y_0_1_0 1
y_0_1_1 1
y_0_1_2 1
y_0_1_3 1
y_0_1_4 1
y_0_1_5 0
y_0_2_0 0
y_0_2_1 1
y_0_2_2 1
y_0_2_3 1
y_0_2_4 0
y_0_2_5 0
y_0_3_0 0
y_0_3_1 1
y_0_3_2 0
y_0_3_3 1
y_0_3_4 0
y_0_3_5 0
y_0_4_0 0
y_0_4_1 1
y_0_4_2 0
y_0_4_3 1
y_0_4_4 0
y_0_4_5 0
y_1_0_0 0
y_1_0_1 0
y_1_0_2 0
y_1_0_3 0
y_1_0_4 0
y_1_0_5 0
y_1_1_0 0
y_1_1_1 0
y_1_1_2 0
y_1_1_3 0
y_1_1_4 0
y_1_1_5 0
y_1_2_0 0
y_1_2_1 0
y_1_2_2 0
y_1_2_3 1
y_1_2_4 0
y_1_2_5 0
y_1_3_0 0
y_1_3_1 1
y_1_3_2 0
y_1_3_3 0
y_1_3_4 0
y_1_3_5 0
y_1_4_0 0
y_1_4_1 0
y_1_4_2 0
y_1_4_3 0
y_1_4_4 0
y_1_4_5 0
y_2_0_0 0
y_2_0_1 0
y_2_0_2 0
y_2_0_3 0
y_2_0_4 0
y_2_0_5 0
y_2_1_0 0
y_2_1_1 0
y_2_1_2 1
y_2_1_3 0
y_2_1_4 1
y_2_1_5 0
y_2_2_0 0
y_2_2_1 1
y_2_2_2 0
y_2_2_3 0
y_2_2_4 0
y_2_2_5 0
y_2_3_0 0
y_2_3_1 0
y_2_3_2 0
y_2_3_3 0
y_2_3_4 0
y_2_3_5 0
y_2_4_0 0
y_2_4_1 0
y_2_4_2 0
y_2_4_3 0
y_2_4_4 0
y_2_4_5 0
y_3_0_0 0
y_3_0_1 0
y_3_0_2 1
y_3_0_3 1
y_3_0_4 0
y_3_0_5 0
y_3_1_0 0
y_3_1_1 0
y_3_1_2 0
y_3_1_3 0
y_3_1_4 0
y_3_1_5 0
y_3_2_0 0
y_3_2_1 0
y_3_2_2 0
y_3_2_3 0
y_3_2_4 0
y_3_2_5 0
y_3_3_0 0
y_3_3_1 0
y_3_3_2 0
y_3_3_3 0
y_3_3_4 0
y_3_3_5 0
y_3_4_0 0
y_3_4_1 0
y_3_4_2 0
y_3_4_3 0
y_3_4_4 0
y_3_4_5 0
y_4_0_0 0
y_4_0_1 0
y_4_0_2 0
y_4_0_3 0
y_4_0_4 0
y_4_0_5 0
y_4_1_0 1
y_4_1_1 0
y_4_1_2 0
y_4_1_3 0
y_4_1_4 0
y_4_1_5 0
y_4_2_0 0
y_4_2_1 0
y_4_2_2 0
y_4_2_3 0
y_4_2_4 0
y_4_2_5 0
y_4_3_0 0
y_4_3_1 0
y_4_3_2 0
y_4_3_3 0
y_4_3_4 0
y_4_3_5 0
y_4_4_0 0
y_4_4_1 1
y_4_4_2 0
y_4_4_3 1
y_4_4_4 0
y_4_4_5 0
y_5_0_0 0
y_5_0_1 0
y_5_0_2 0
y_5_0_3 1
y_5_0_4 1
y_5_0_5 0
y_5_1_0 0
y_5_1_1 1
y_5_1_2 0
y_5_1_3 0
y_5_1_4 0
y_5_1_5 0
y_5_2_0 0
y_5_2_1 0
y_5_2_2 0
y_5_2_3 0
y_5_2_4 0
y_5_2_5 0
y_5_3_0 0
y_5_3_1 0
y_5_3_2 0
y_5_3_3 0
y_5_3_4 0
y_5_3_5 0
y_5_4_0 0
y_5_4_1 0
y_5_4_2 0
y_5_4_3 0
y_5_4_4 0
y_5_4_5 0
y_6_0_0 1
y_6_0_1 0
y_6_0_2 1
y_6_0_3 1
y_6_0_4 1
y_6_0_5 0
y_6_1_0 0
y_6_1_1 1
y_6_1_2 0
y_6_1_3 0
y_6_1_4 0
y_6_1_5 0
y_6_2_0 0
y_6_2_1 0
y_6_2_2 0
y_6_2_3 0
y_6_2_4 0
y_6_2_5 0
y_6_3_0 0
y_6_3_1 0
y_6_3_2 0
y_6_3_3 0
y_6_3_4 0
y_6_3_5 0
y_6_4_0 0
y_6_4_1 0
y_6_4_2 0
y_6_4_3 0
y_6_4_4 0
y_6_4_5 0
y_7_0_0 0
y_7_0_1 1
y_7_0_2 0
y_7_0_3 0
y_7_0_4 0
y_7_0_5 0
y_7_1_0 0
y_7_1_1 0
y_7_1_2 0
y_7_1_3 1
y_7_1_4 0
y_7_1_5 0
y_7_2_0 0
y_7_2_1 0
y_7_2_2 0
y_7_2_3 0
y_7_2_4 0
y_7_2_5 0
y_7_3_0 0
y_7_3_1 0
y_7_3_2 0
y_7_3_3 0
y_7_3_4 0
y_7_3_5 0
y_7_4_0 0
y_7_4_1 0
y_7_4_2 0
y_7_4_3 0
y_7_4_4 0
y_7_4_5 0
y_8_0_0 0
y_8_0_1 1
y_8_0_2 0
y_8_0_3 0
y_8_0_4 1
y_8_0_5 0
y_8_1_0 0
y_8_1_1 0
y_8_1_2 0
y_8_1_3 1
y_8_1_4 0
y_8_1_5 0
y_8_2_0 0
y_8_2_1 0
y_8_2_2 0
y_8_2_3 0
y_8_2_4 0
y_8_2_5 0
y_8_3_0 0
y_8_3_1 0
y_8_3_2 0
y_8_3_3 0
y_8_3_4 0
y_8_3_5 0
y_8_4_0 0
y_8_4_1 0
y_8_4_2 0
y_8_4_3 0
y_8_4_4 0
y_8_4_5 0
y_9_0_0 0
y_9_0_1 0
y_9_0_2 0
y_9_0_3 0
y_9_0_4 0
y_9_0_5 0
y_9_1_0 0
y_9_1_1 0
y_9_1_2 0
y_9_1_3 0
y_9_1_4 0
y_9_1_5 0
y_9_2_0 0
y_9_2_1 0
y_9_2_2 1
y_9_2_3 0
y_9_2_4 0
y_9_2_5 0
y_9_3_0 0
y_9_3_1 0
y_9_3_2 0
y_9_3_3 1
y_9_3_4 0
y_9_3_5 0
y_9_4_0 0
y_9_4_1 0
y_9_4_2 0
y_9_4_3 0
y_9_4_4 0
y_9_4_5 0
y_10_0_0 0
y_10_0_1 0
y_10_0_2 0
y_10_0_3 0
y_10_0_4 0
y_10_0_5 0
y_10_1_0 1
y_10_1_1 0
y_10_1_2 1
y_10_1_3 0
y_10_1_4 0
y_10_1_5 0
y_10_2_0 0
y_10_2_1 0
y_10_2_2 0
y_10_2_3 0
y_10_2_4 0
y_10_2_5 0
y_10_3_0 0
y_10_3_1 0
y_10_3_2 0
y_10_3_3 1
y_10_3_4 0
y_10_3_5 0
y_10_4_0 0
y_10_4_1 1
y_10_4_2 0
y_10_4_3 0
y_10_4_4 0
y_10_4_5 0
x_0_1_0_0 0
x_0_1_0_1 0
x_0_1_0_2 0
x_0_1_0_3 0
x_0_1_0_4 0
x_0_1_0_5 0
x_0_1_1_0 0
x_0_1_1_1 0
x_0_1_1_2 0
x_0_1_1_3 0
x_0_1_1_4 0
x_0_1_1_5 0
x_0_1_2_0 0
x_0_1_2_1 0
x_0_1_2_2 0
x_0_1_2_3 2
x_0_1_2_4 0
x_0_1_2_5 0
x_0_1_3_0 0
x_0_1_3_1 2
x_0_1_3_2 0
x_0_1_3_3 0
x_0_1_3_4 0
x_0_1_3_5 0
x_0_1_4_0 0
x_0_1_4_1 0
x_0_1_4_2 0
x_0_1_4_3 0
x_0_1_4_4 0
x_0_1_4_5 0
x_0_2_0_0 0
x_0_2_0_1 0
x_0_2_0_2 0
x_0_2_0_3 0
x_0_2_0_4 0
x_0_2_0_5 0
x_0_2_1_0 0
x_0_2_1_1 0
x_0_2_1_2 1
x_0_2_1_3 0
x_0_2_1_4 2
x_0_2_1_5 0
x_0_2_2_0 0
x_0_2_2_1 2
x_0_2_2_2 0
x_0_2_2_3 0
x_0_2_2_4 0
x_0_2_2_5 0
x_0_2_3_0 0
x_0_2_3_1 0
x_0_2_3_2 0
x_0_2_3_3 0
x_0_2_3_4 0
x_0_2_3_5 0
x_0_2_4_0 0
x_0_2_4_1 0
x_0_2_4_2 0
x_0_2_4_3 0
x_0_2_4_4 0
x_0_2_4_5 0
x_0_3_0_0 0
x_0_3_0_1 0
x_0_3_0_2 1
x_0_3_0_3 1
x_0_3_0_4 0
x_0_3_0_5 0
x_0_3_1_0 0
x_0_3_1_1 0
x_0_3_1_2 0
x_0_3_1_3 0
x_0_3_1_4 0
x_0_3_1_5 0
x_0_3_2_0 0
x_0_3_2_1 0
x_0_3_2_2 0
x_0_3_2_3 0
x_0_3_2_4 0
x_0_3_2_5 0
x_0_3_3_0 0
x_0_3_3_1 0
x_0_3_3_2 0
x_0_3_3_3 0
x_0_3_3_4 0
x_0_3_3_5 0
x_0_3_4_0 0
x_0_3_4_1 0
x_0_3_4_2 0
x_0_3_4_3 0
x_0_3_4_4 0
x_0_3_4_5 0
x_0_4_0_0 0
x_0_4_0_1 0
x_0_4_0_2 0
x_0_4_0_3 0
x_0_4_0_4 0
x_0_4_0_5 0
x_0_4_1_0 1
x_0_4_1_1 0
x_0_4_1_2 0
x_0_4_1_3 0
x_0_4_1_4 0
x_0_4_1_5 0
x_0_4_2_0 0
x_0_4_2_1 0
x_0_4_2_2 0
x_0_4_2_3 0
x_0_4_2_4 0
x_0_4_2_5 0
x_0_4_3_0 0
x_0_4_3_1 0
x_0_4_3_2 0
x_0_4_3_3 0
x_0_4_3_4 0
x_0_4_3_5 0
x_0_4_4_0 0
x_0_4_4_1 1
x_0_4_4_2 0
x_0_4_4_3 2
x_0_4_4_4 0
x_0_4_4_5 0
x_0_5_0_0 0
x_0_5_0_1 0
x_0_5_0_2 0
x_0_5_0_3 1
x_0_5_0_4 1
x_0_5_0_5 0
x_0_5_1_0 0
x_0_5_1_1 1
x_0_5_1_2 0
x_0_5_1_3 0
x_0_5_1_4 0
x_0_5_1_5 0
x_0_5_2_0 0
x_0_5_2_1 0
x_0_5_2_2 0
x_0_5_2_3 0
x_0_5_2_4 0
x_0_5_2_5 0
x_0_5_3_0 0
x_0_5_3_1 0
x_0_5_3_2 0
x_0_5_3_3 0
x_0_5_3_4 0
x_0_5_3_5 0
x_0_5_4_0 0
x_0_5_4_1 0
x_0_5_4_2 0
x_0_5_4_3 0
x_0_5_4_4 0
x_0_5_4_5 0
x_0_6_0_0 2
x_0_6_0_1 0
x_0_6_0_2 1
x_0_6_0_3 0
x_0_6_0_4 0
x_0_6_0_5 0
x_0_6_1_0 0
x_0_6_1_1 1
x_0_6_1_2 0
x_0_6_1_3 0
x_0_6_1_4 0
x_0_6_1_5 0
x_0_6_2_0 0
x_0_6_2_1 0
x_0_6_2_2 0
x_0_6_2_3 0
x_0_6_2_4 0
x_0_6_2_5 0
x_0_6_3_0 0
x_0_6_3_1 0
x_0_6_3_2 0
x_0_6_3_3 0
x_0_6_3_4 0
x_0_6_3_5 0
x_0_6_4_0 0
x_0_6_4_1 0
x_0_6_4_2 0
x_0_6_4_3 0
x_0_6_4_4 0
x_0_6_4_5 0
x_0_7_0_0 0
x_0_7_0_1 1
x_0_7_0_2 0
x_0_7_0_3 0
x_0_7_0_4 0
x_0_7_0_5 0
x_0_7_1_0 0
x_0_7_1_1 0
x_0_7_1_2 0
x_0_7_1_3 1
x_0_7_1_4 0
x_0_7_1_5 0
x_0_7_2_0 0
x_0_7_2_1 0
x_0_7_2_2 0
x_0_7_2_3 0
x_0_7_2_4 0
x_0_7_2_5 0
x_0_7_3_0 0
x_0_7_3_1 0
x_0_7_3_2 0
x_0_7_3_3 0
x_0_7_3_4 0
x_0_7_3_5 0
x_0_7_4_0 0
x_0_7_4_1 0
x_0_7_4_2 0
x_0_7_4_3 0
x_0_7_4_4 0
x_0_7_4_5 0
x_0_8_0_0 0
x_0_8_0_1 1
x_0_8_0_2 0
x_0_8_0_3 0
x_0_8_0_4 1
x_0_8_0_5 0
x_0_8_1_0 0
x_0_8_1_1 0
x_0_8_1_2 0
x_0_8_1_3 1
x_0_8_1_4 0
x_0_8_1_5 0
x_0_8_2_0 0
x_0_8_2_1 0
x_0_8_2_2 0
x_0_8_2_3 0
x_0_8_2_4 0
x_0_8_2_5 0
x_0_8_3_0 0
x_0_8_3_1 0
x_0_8_3_2 0
x_0_8_3_3 0
x_0_8_3_4 0
x_0_8_3_5 0
x_0_8_4_0 0
x_0_8_4_1 0
x_0_8_4_2 0
x_0_8_4_3 0
x_0_8_4_4 0
x_0_8_4_5 0
x_0_9_0_0 0
x_0_9_0_1 0
x_0_9_0_2 0
x_0_9_0_3 0
x_0_9_0_4 0
x_0_9_0_5 0
x_0_9_1_0 0
x_0_9_1_1 0
x_0_9_1_2 0
x_0_9_1_3 0
x_0_9_1_4 0
x_0_9_1_5 0
x_0_9_2_0 0
x_0_9_2_1 0
x_0_9_2_2 2
x_0_9_2_3 0
x_0_9_2_4 0
x_0_9_2_5 0
x_0_9_3_0 0
x_0_9_3_1 0
x_0_9_3_2 0
x_0_9_3_3 1
x_0_9_3_4 0
x_0_9_3_5 0
x_0_9_4_0 0
x_0_9_4_1 0
x_0_9_4_2 0
x_0_9_4_3 0
x_0_9_4_4 0
x_0_9_4_5 0
x_0_10_0_0 0
x_0_10_0_1 0
x_0_10_0_2 0
x_0_10_0_3 0
x_0_10_0_4 0
x_0_10_0_5 0
x_0_10_1_0 1
x_0_10_1_1 0
x_0_10_1_2 1
x_0_10_1_3 0
x_0_10_1_4 0
x_0_10_1_5 0
x_0_10_2_0 0
x_0_10_2_1 0
x_0_10_2_2 0
x_0_10_2_3 0
x_0_10_2_4 0
x_0_10_2_5 0
x_0_10_3_0 0
x_0_10_3_1 0
x_0_10_3_2 0
x_0_10_3_3 1
x_0_10_3_4 0
x_0_10_3_5 0
x_0_10_4_0 0
x_0_10_4_1 1
x_0_10_4_2 0
x_0_10_4_3 0
x_0_10_4_4 0
x_0_10_4_5 0
x_1_2_0_0 0
x_1_2_0_1 0
x_1_2_0_2 0
x_1_2_0_3 0
x_1_2_0_4 0
x_1_2_0_5 0
x_1_2_1_0 0
x_1_2_1_1 0
x_1_2_1_2 0
x_1_2_1_3 0
x_1_2_1_4 0
x_1_2_1_5 0
x_1_2_2_0 0
x_1_2_2_1 0
x_1_2_2_2 0
x_1_2_2_3 0
x_1_2_2_4 0
x_1_2_2_5 0
x_1_2_3_0 0
x_1_2_3_1 0
x_1_2_3_2 0
x_1_2_3_3 0
x_1_2_3_4 0
x_1_2_3_5 0
x_1_2_4_0 0
x_1_2_4_1 0
x_1_2_4_2 0
x_1_2_4_3 0
x_1_2_4_4 0
x_1_2_4_5 0
x_1_3_0_0 0
x_1_3_0_1 0
x_1_3_0_2 0
x_1_3_0_3 0
x_1_3_0_4 0
x_1_3_0_5 0
x_1_3_1_0 0
x_1_3_1_1 0
x_1_3_1_2 0
x_1_3_1_3 0
x_1_3_1_4 0
x_1_3_1_5 0
x_1_3_2_0 0
x_1_3_2_1 0
x_1_3_2_2 0
x_1_3_2_3 0
x_1_3_2_4 0
x_1_3_2_5 0
x_1_3_3_0 0
x_1_3_3_1 0
x_1_3_3_2 0
x_1_3_3_3 0
x_1_3_3_4 0
x_1_3_3_5 0
x_1_3_4_0 0
x_1_3_4_1 0
x_1_3_4_2 0
x_1_3_4_3 0
x_1_3_4_4 0
x_1_3_4_5 0
x_1_4_0_0 0
x_1_4_0_1 0
x_1_4_0_2 0
x_1_4_0_3 0
x_1_4_0_4 0
x_1_4_0_5 0
x_1_4_1_0 0
x_1_4_1_1 0
x_1_4_1_2 0
x_1_4_1_3 0
x_1_4_1_4 0
x_1_4_1_5 0
x_1_4_2_0 0
x_1_4_2_1 0
x_1_4_2_2 0
x_1_4_2_3 0
x_1_4_2_4 0
x_1_4_2_5 0
x_1_4_3_0 0
x_1_4_3_1 0
x_1_4_3_2 0
x_1_4_3_3 0
x_1_4_3_4 0
x_1_4_3_5 0
x_1_4_4_0 0
x_1_4_4_1 0
x_1_4_4_2 0
x_1_4_4_3 0
x_1_4_4_4 0
x_1_4_4_5 0
x_1_5_0_0 0
x_1_5_0_1 0
x_1_5_0_2 0
x_1_5_0_3 0
x_1_5_0_4 0
x_1_5_0_5 0
x_1_5_1_0 0
x_1_5_1_1 0
x_1_5_1_2 0
x_1_5_1_3 0
x_1_5_1_4 0
x_1_5_1_5 0
x_1_5_2_0 0
x_1_5_2_1 0
x_1_5_2_2 0
x_1_5_2_3 0
x_1_5_2_4 0
x_1_5_2_5 0
x_1_5_3_0 0
x_1_5_3_1 0
x_1_5_3_2 0
x_1_5_3_3 0
x_1_5_3_4 0
x_1_5_3_5 0
x_1_5_4_0 0
x_1_5_4_1 0
x_1_5_4_2 0
x_1_5_4_3 0
x_1_5_4_4 0
x_1_5_4_5 0
x_1_6_0_0 0
x_1_6_0_1 0
x_1_6_0_2 0
x_1_6_0_3 0
x_1_6_0_4 0
x_1_6_0_5 0
x_1_6_1_0 0
x_1_6_1_1 0
x_1_6_1_2 0
x_1_6_1_3 0
x_1_6_1_4 0
x_1_6_1_5 0
x_1_6_2_0 0
x_1_6_2_1 0
x_1_6_2_2 0
x_1_6_2_3 0
x_1_6_2_4 0
x_1_6_2_5 0
x_1_6_3_0 0
x_1_6_3_1 0
x_1_6_3_2 0
x_1_6_3_3 0
x_1_6_3_4 0
x_1_6_3_5 0
x_1_6_4_0 0
x_1_6_4_1 0
x_1_6_4_2 0
x_1_6_4_3 0
x_1_6_4_4 0
x_1_6_4_5 0
x_1_7_0_0 0
x_1_7_0_1 0
x_1_7_0_2 0
x_1_7_0_3 0
x_1_7_0_4 0
x_1_7_0_5 0
x_1_7_1_0 0
x_1_7_1_1 0
x_1_7_1_2 0
x_1_7_1_3 0
x_1_7_1_4 0
x_1_7_1_5 0
x_1_7_2_0 0
x_1_7_2_1 0
x_1_7_2_2 0
x_1_7_2_3 0
x_1_7_2_4 0
x_1_7_2_5 0
x_1_7_3_0 0
x_1_7_3_1 0
x_1_7_3_2 0
x_1_7_3_3 0
x_1_7_3_4 0
x_1_7_3_5 0
x_1_7_4_0 0
x_1_7_4_1 0
x_1_7_4_2 0
x_1_7_4_3 0
x_1_7_4_4 0
x_1_7_4_5 0
x_1_8_0_0 0
x_1_8_0_1 0
x_1_8_0_2 0
x_1_8_0_3 0
x_1_8_0_4 0
x_1_8_0_5 0
x_1_8_1_0 0
x_1_8_1_1 0
x_1_8_1_2 0
x_1_8_1_3 0
x_1_8_1_4 0
x_1_8_1_5 0
x_1_8_2_0 0
x_1_8_2_1 0
x_1_8_2_2 0
x_1_8_2_3 0
x_1_8_2_4 0
x_1_8_2_5 0
x_1_8_3_0 0
x_1_8_3_1 0
x_1_8_3_2 0
x_1_8_3_3 0
x_1_8_3_4 0
x_1_8_3_5 0
x_1_8_4_0 0
x_1_8_4_1 0
x_1_8_4_2 0
x_1_8_4_3 0
x_1_8_4_4 0
x_1_8_4_5 0
x_1_9_0_0 0
x_1_9_0_1 0
x_1_9_0_2 0
x_1_9_0_3 0
x_1_9_0_4 0
x_1_9_0_5 0
x_1_9_1_0 0
x_1_9_1_1 0
x_1_9_1_2 0
x_1_9_1_3 0
x_1_9_1_4 0
x_1_9_1_5 0
x_1_9_2_0 0
x_1_9_2_1 0
x_1_9_2_2 0
x_1_9_2_3 0
x_1_9_2_4 0
x_1_9_2_5 0
x_1_9_3_0 0
x_1_9_3_1 0
x_1_9_3_2 0
x_1_9_3_3 0
x_1_9_3_4 0
x_1_9_3_5 0
x_1_9_4_0 0
x_1_9_4_1 0
x_1_9_4_2 0
x_1_9_4_3 0
x_1_9_4_4 0
x_1_9_4_5 0
x_1_10_0_0 0
x_1_10_0_1 0
x_1_10_0_2 0
x_1_10_0_3 0
x_1_10_0_4 0
x_1_10_0_5 0
x_1_10_1_0 0
x_1_10_1_1 0
x_1_10_1_2 0
x_1_10_1_3 0
x_1_10_1_4 0
x_1_10_1_5 0
x_1_10_2_0 0
x_1_10_2_1 0
x_1_10_2_2 0
x_1_10_2_3 0
x_1_10_2_4 0
x_1_10_2_5 0
x_1_10_3_0 0
x_1_10_3_1 0
x_1_10_3_2 0
x_1_10_3_3 0
x_1_10_3_4 0
x_1_10_3_5 0
x_1_10_4_0 0
x_1_10_4_1 0
x_1_10_4_2 0
x_1_10_4_3 0
x_1_10_4_4 0
x_1_10_4_5 0
x_2_3_0_0 0
x_2_3_0_1 0
x_2_3_0_2 0
x_2_3_0_3 0
x_2_3_0_4 0
x_2_3_0_5 0
x_2_3_1_0 0
x_2_3_1_1 0
x_2_3_1_2 0
x_2_3_1_3 0
x_2_3_1_4 0
x_2_3_1_5 0
x_2_3_2_0 0
x_2_3_2_1 0
x_2_3_2_2 0
x_2_3_2_3 0
x_2_3_2_4 0
x_2_3_2_5 0
x_2_3_3_0 0
x_2_3_3_1 0
x_2_3_3_2 0
x_2_3_3_3 0
x_2_3_3_4 0
x_2_3_3_5 0
x_2_3_4_0 0
x_2_3_4_1 0
x_2_3_4_2 0
x_2_3_4_3 0
x_2_3_4_4 0
x_2_3_4_5 0
x_2_4_0_0 0
x_2_4_0_1 0
x_2_4_0_2 0
x_2_4_0_3 0
x_2_4_0_4 0
x_2_4_0_5 0
x_2_4_1_0 0
x_2_4_1_1 0
x_2_4_1_2 0
x_2_4_1_3 0
x_2_4_1_4 0
x_2_4_1_5 0
x_2_4_2_0 0
x_2_4_2_1 0
x_2_4_2_2 0
x_2_4_2_3 0
x_2_4_2_4 0
x_2_4_2_5 0
x_2_4_3_0 0
x_2_4_3_1 0
x_2_4_3_2 0
x_2_4_3_3 0
x_2_4_3_4 0
x_2_4_3_5 0
x_2_4_4_0 0
x_2_4_4_1 0
x_2_4_4_2 0
x_2_4_4_3 0
x_2_4_4_4 0
x_2_4_4_5 0
x_2_5_0_0 0
x_2_5_0_1 0
x_2_5_0_2 0
x_2_5_0_3 0
x_2_5_0_4 0
x_2_5_0_5 0
x_2_5_1_0 0
x_2_5_1_1 0
x_2_5_1_2 0
x_2_5_1_3 0
x_2_5_1_4 0
x_2_5_1_5 0
x_2_5_2_0 0
x_2_5_2_1 0
x_2_5_2_2 0
x_2_5_2_3 0
x_2_5_2_4 0
x_2_5_2_5 0
x_2_5_3_0 0
x_2_5_3_1 0
x_2_5_3_2 0
x_2_5_3_3 0
x_2_5_3_4 0
x_2_5_3_5 0
x_2_5_4_0 0
x_2_5_4_1 0
x_2_5_4_2 0
x_2_5_4_3 0
x_2_5_4_4 0
x_2_5_4_5 0
x_2_6_0_0 0
x_2_6_0_1 0
x_2_6_0_2 0
x_2_6_0_3 0
x_2_6_0_4 0
x_2_6_0_5 0
x_2_6_1_0 0
x_2_6_1_1 0
x_2_6_1_2 0
x_2_6_1_3 0
x_2_6_1_4 0
x_2_6_1_5 0
x_2_6_2_0 0
x_2_6_2_1 0
x_2_6_2_2 0
x_2_6_2_3 0
x_2_6_2_4 0
x_2_6_2_5 0
x_2_6_3_0 0
x_2_6_3_1 0
x_2_6_3_2 0
x_2_6_3_3 0
x_2_6_3_4 0
x_2_6_3_5 0
x_2_6_4_0 0
x_2_6_4_1 0
x_2_6_4_2 0
x_2_6_4_3 0
x_2_6_4_4 0
x_2_6_4_5 0
x_2_7_0_0 0
x_2_7_0_1 0
x_2_7_0_2 0
x_2_7_0_3 0
x_2_7_0_4 0
x_2_7_0_5 0
x_2_7_1_0 0
x_2_7_1_1 0
x_2_7_1_2 0
x_2_7_1_3 0
x_2_7_1_4 0
x_2_7_1_5 0
x_2_7_2_0 0
x_2_7_2_1 0
x_2_7_2_2 0
x_2_7_2_3 0
x_2_7_2_4 0
x_2_7_2_5 0
x_2_7_3_0 0
x_2_7_3_1 0
x_2_7_3_2 0
x_2_7_3_3 0
x_2_7_3_4 0
x_2_7_3_5 0
x_2_7_4_0 0
x_2_7_4_1 0
x_2_7_4_2 0
x_2_7_4_3 0
x_2_7_4_4 0
x_2_7_4_5 0
x_2_8_0_0 0
x_2_8_0_1 0
x_2_8_0_2 0
x_2_8_0_3 0
x_2_8_0_4 0
x_2_8_0_5 0
x_2_8_1_0 0
x_2_8_1_1 0
x_2_8_1_2 0
x_2_8_1_3 0
x_2_8_1_4 0
x_2_8_1_5 0
x_2_8_2_0 0
x_2_8_2_1 0
x_2_8_2_2 0
x_2_8_2_3 0
x_2_8_2_4 0
x_2_8_2_5 0
x_2_8_3_0 0
x_2_8_3_1 0
x_2_8_3_2 0
x_2_8_3_3 0
x_2_8_3_4 0
x_2_8_3_5 0
x_2_8_4_0 0
x_2_8_4_1 0
x_2_8_4_2 0
x_2_8_4_3 0
x_2_8_4_4 0
x_2_8_4_5 0
x_2_9_0_0 0
x_2_9_0_1 0
x_2_9_0_2 0
x_2_9_0_3 0
x_2_9_0_4 0
x_2_9_0_5 0
x_2_9_1_0 0
x_2_9_1_1 0
x_2_9_1_2 0
x_2_9_1_3 0
x_2_9_1_4 0
x_2_9_1_5 0
x_2_9_2_0 0
x_2_9_2_1 0
x_2_9_2_2 0
x_2_9_2_3 0
x_2_9_2_4 0
x_2_9_2_5 0
x_2_9_3_0 0
x_2_9_3_1 0
x_2_9_3_2 0
x_2_9_3_3 0
x_2_9_3_4 0
x_2_9_3_5 0
x_2_9_4_0 0
x_2_9_4_1 0
x_2_9_4_2 0
x_2_9_4_3 0
x_2_9_4_4 0
x_2_9_4_5 0
x_2_10_0_0 0
x_2_10_0_1 0
x_2_10_0_2 0
x_2_10_0_3 0
x_2_10_0_4 0
x_2_10_0_5 0
x_2_10_1_0 0
x_2_10_1_1 0
x_2_10_1_2 1
x_2_10_1_3 0
x_2_10_1_4 0
x_2_10_1_5 0
x_2_10_2_0 0
x_2_10_2_1 0
x_2_10_2_2 0
x_2_10_2_3 0
x_2_10_2_4 0
x_2_10_2_5 0
x_2_10_3_0 0
x_2_10_3_1 0
x_2_10_3_2 0
x_2_10_3_3 0
x_2_10_3_4 0
x_2_10_3_5 0
x_2_10_4_0 0
x_2_10_4_1 0
x_2_10_4_2 0
x_2_10_4_3 0
x_2_10_4_4 0
x_2_10_4_5 0
x_3_4_0_0 0
x_3_4_0_1 0
x_3_4_0_2 0
x_3_4_0_3 0
x_3_4_0_4 0
x_3_4_0_5 0
x_3_4_1_0 0
x_3_4_1_1 0
x_3_4_1_2 0
x_3_4_1_3 0
x_3_4_1_4 0
x_3_4_1_5 0
x_3_4_2_0 0
x_3_4_2_1 0
x_3_4_2_2 0
x_3_4_2_3 0
x_3_4_2_4 0
x_3_4_2_5 0
x_3_4_3_0 0
x_3_4_3_1 0
x_3_4_3_2 0
x_3_4_3_3 0
x_3_4_3_4 0
x_3_4_3_5 0
x_3_4_4_0 0
x_3_4_4_1 0
x_3_4_4_2 0
x_3_4_4_3 0
x_3_4_4_4 0
x_3_4_4_5 0
x_3_5_0_0 0
x_3_5_0_1 0
x_3_5_0_2 0
x_3_5_0_3 0
x_3_5_0_4 0
x_3_5_0_5 0
x_3_5_1_0 0
x_3_5_1_1 0
x_3_5_1_2 0
x_3_5_1_3 0
x_3_5_1_4 0
x_3_5_1_5 0
x_3_5_2_0 0
x_3_5_2_1 0
x_3_5_2_2 0
x_3_5_2_3 0
x_3_5_2_4 0
x_3_5_2_5 0
x_3_5_3_0 0
x_3_5_3_1 0
x_3_5_3_2 0
x_3_5_3_3 0
x_3_5_3_4 0
x_3_5_3_5 0
x_3_5_4_0 0
x_3_5_4_1 0
x_3_5_4_2 0
x_3_5_4_3 0
x_3_5_4_4 0
x_3_5_4_5 0
x_3_6_0_0 0
x_3_6_0_1 0
x_3_6_0_2 1
x_3_6_0_3 1
x_3_6_0_4 0
x_3_6_0_5 0
x_3_6_1_0 0
x_3_6_1_1 0
x_3_6_1_2 0
x_3_6_1_3 0
x_3_6_1_4 0
x_3_6_1_5 0
x_3_6_2_0 0
x_3_6_2_1 0
x_3_6_2_2 0
x_3_6_2_3 0
x_3_6_2_4 0
x_3_6_2_5 0
x_3_6_3_0 0
x_3_6_3_1 0
x_3_6_3_2 0
x_3_6_3_3 0
x_3_6_3_4 0
x_3_6_3_5 0
x_3_6_4_0 0
x_3_6_4_1 0
x_3_6_4_2 0
x_3_6_4_3 0
x_3_6_4_4 0
x_3_6_4_5 0
x_3_7_0_0 0
x_3_7_0_1 0
x_3_7_0_2 0
x_3_7_0_3 0
x_3_7_0_4 0
x_3_7_0_5 0
x_3_7_1_0 0
x_3_7_1_1 0
x_3_7_1_2 0
x_3_7_1_3 0
x_3_7_1_4 0
x_3_7_1_5 0
x_3_7_2_0 0
x_3_7_2_1 0
x_3_7_2_2 0
x_3_7_2_3 0
x_3_7_2_4 0
x_3_7_2_5 0
x_3_7_3_0 0
x_3_7_3_1 0
x_3_7_3_2 0
x_3_7_3_3 0
x_3_7_3_4 0
x_3_7_3_5 0
x_3_7_4_0 0
x_3_7_4_1 0
x_3_7_4_2 0
x_3_7_4_3 0
x_3_7_4_4 0
x_3_7_4_5 0
x_3_8_0_0 0
x_3_8_0_1 0
x_3_8_0_2 0
x_3_8_0_3 0
x_3_8_0_4 0
x_3_8_0_5 0
x_3_8_1_0 0
x_3_8_1_1 0
x_3_8_1_2 0
x_3_8_1_3 0
x_3_8_1_4 0
x_3_8_1_5 0
x_3_8_2_0 0
x_3_8_2_1 0
x_3_8_2_2 0
x_3_8_2_3 0
x_3_8_2_4 0
x_3_8_2_5 0
x_3_8_3_0 0
x_3_8_3_1 0
x_3_8_3_2 0
x_3_8_3_3 0
x_3_8_3_4 0
x_3_8_3_5 0
x_3_8_4_0 0
x_3_8_4_1 0
x_3_8_4_2 0
x_3_8_4_3 0
x_3_8_4_4 0
x_3_8_4_5 0
x_3_9_0_0 0
x_3_9_0_1 0
x_3_9_0_2 0
x_3_9_0_3 0
x_3_9_0_4 0
x_3_9_0_5 0
x_3_9_1_0 0
x_3_9_1_1 0
x_3_9_1_2 0
x_3_9_1_3 0
x_3_9_1_4 0
x_3_9_1_5 0
x_3_9_2_0 0
x_3_9_2_1 0
x_3_9_2_2 0
x_3_9_2_3 0
x_3_9_2_4 0
x_3_9_2_5 0
x_3_9_3_0 0
x_3_9_3_1 0
x_3_9_3_2 0
x_3_9_3_3 0
x_3_9_3_4 0
x_3_9_3_5 0
x_3_9_4_0 0
x_3_9_4_1 0
x_3_9_4_2 0
x_3_9_4_3 0
x_3_9_4_4 0
x_3_9_4_5 0
x_3_10_0_0 0
x_3_10_0_1 0
x_3_10_0_2 0
x_3_10_0_3 0
x_3_10_0_4 0
x_3_10_0_5 0
x_3_10_1_0 0
x_3_10_1_1 0
x_3_10_1_2 0
x_3_10_1_3 0
x_3_10_1_4 0
x_3_10_1_5 0
x_3_10_2_0 0
x_3_10_2_1 0
x_3_10_2_2 0
x_3_10_2_3 0
x_3_10_2_4 0
x_3_10_2_5 0
x_3_10_3_0 0
x_3_10_3_1 0
x_3_10_3_2 0
x_3_10_3_3 0
x_3_10_3_4 0
x_3_10_3_5 0
x_3_10_4_0 0
x_3_10_4_1 0
x_3_10_4_2 0
x_3_10_4_3 0
x_3_10_4_4 0
x_3_10_4_5 0
x_4_5_0_0 0
x_4_5_0_1 0
x_4_5_0_2 0
x_4_5_0_3 0
x_4_5_0_4 0
x_4_5_0_5 0
x_4_5_1_0 0
x_4_5_1_1 0
x_4_5_1_2 0
x_4_5_1_3 0
x_4_5_1_4 0
x_4_5_1_5 0
x_4_5_2_0 0
x_4_5_2_1 0
x_4_5_2_2 0
x_4_5_2_3 0
x_4_5_2_4 0
x_4_5_2_5 0
x_4_5_3_0 0
x_4_5_3_1 0
x_4_5_3_2 0
x_4_5_3_3 0
x_4_5_3_4 0
x_4_5_3_5 0
x_4_5_4_0 0
x_4_5_4_1 0
x_4_5_4_2 0
x_4_5_4_3 0
x_4_5_4_4 0
x_4_5_4_5 0
x_4_6_0_0 0
x_4_6_0_1 0
x_4_6_0_2 0
x_4_6_0_3 0
x_4_6_0_4 0
x_4_6_0_5 0
x_4_6_1_0 0
x_4_6_1_1 0
x_4_6_1_2 0
x_4_6_1_3 0
x_4_6_1_4 0
x_4_6_1_5 0
x_4_6_2_0 0
x_4_6_2_1 0
x_4_6_2_2 0
x_4_6_2_3 0
x_4_6_2_4 0
x_4_6_2_5 0
x_4_6_3_0 0
x_4_6_3_1 0
x_4_6_3_2 0
x_4_6_3_3 0
x_4_6_3_4 0
x_4_6_3_5 0
x_4_6_4_0 0
x_4_6_4_1 0
x_4_6_4_2 0
x_4_6_4_3 0
x_4_6_4_4 0
x_4_6_4_5 0
x_4_7_0_0 0
x_4_7_0_1 0
x_4_7_0_2 0
x_4_7_0_3 0
x_4_7_0_4 0
x_4_7_0_5 0
x_4_7_1_0 0
x_4_7_1_1 0
x_4_7_1_2 0
x_4_7_1_3 0
x_4_7_1_4 0
x_4_7_1_5 0
x_4_7_2_0 0
x_4_7_2_1 0
x_4_7_2_2 0
x_4_7_2_3 0
x_4_7_2_4 0
x_4_7_2_5 0
x_4_7_3_0 0
x_4_7_3_1 0
x_4_7_3_2 0
x_4_7_3_3 0
x_4_7_3_4 0
x_4_7_3_5 0
x_4_7_4_0 0
x_4_7_4_1 0
x_4_7_4_2 0
x_4_7_4_3 0
x_4_7_4_4 0
x_4_7_4_5 0
x_4_8_0_0 0
x_4_8_0_1 0
x_4_8_0_2 0
x_4_8_0_3 0
x_4_8_0_4 0
x_4_8_0_5 0
x_4_8_1_0 0
x_4_8_1_1 0
x_4_8_1_2 0
x_4_8_1_3 0
x_4_8_1_4 0
x_4_8_1_5 0
x_4_8_2_0 0
x_4_8_2_1 0
x_4_8_2_2 0
x_4_8_2_3 0
x_4_8_2_4 0
x_4_8_2_5 0
x_4_8_3_0 0
x_4_8_3_1 0
x_4_8_3_2 0
x_4_8_3_3 0
x_4_8_3_4 0
x_4_8_3_5 0
x_4_8_4_0 0
x_4_8_4_1 0
x_4_8_4_2 0
x_4_8_4_3 0
x_4_8_4_4 0
x_4_8_4_5 0
x_4_9_0_0 0
x_4_9_0_1 0
x_4_9_0_2 0
x_4_9_0_3 0
x_4_9_0_4 0
x_4_9_0_5 0
x_4_9_1_0 0
x_4_9_1_1 0
x_4_9_1_2 0
x_4_9_1_3 0
x_4_9_1_4 0
x_4_9_1_5 0
x_4_9_2_0 0
x_4_9_2_1 0
x_4_9_2_2 0
x_4_9_2_3 0
x_4_9_2_4 0
x_4_9_2_5 0
x_4_9_3_0 0
x_4_9_3_1 0
x_4_9_3_2 0
x_4_9_3_3 0
x_4_9_3_4 0
x_4_9_3_5 0
x_4_9_4_0 0
x_4_9_4_1 0
x_4_9_4_2 0
x_4_9_4_3 0
x_4_9_4_4 0
x_4_9_4_5 0
x_4_10_0_0 0
x_4_10_0_1 0
x_4_10_0_2 0
x_4_10_0_3 0
x_4_10_0_4 0
x_4_10_0_5 0
x_4_10_1_0 1
x_4_10_1_1 0
x_4_10_1_2 0
x_4_10_1_3 0
x_4_10_1_4 0
x_4_10_1_5 0
x_4_10_2_0 0
x_4_10_2_1 0
x_4_10_2_2 0
x_4_10_2_3 0
x_4_10_2_4 0
x_4_10_2_5 0
x_4_10_3_0 0
x_4_10_3_1 0
x_4_10_3_2 0
x_4_10_3_3 0
x_4_10_3_4 0
x_4_10_3_5 0
x_4_10_4_0 0
x_4_10_4_1 1
x_4_10_4_2 0
x_4_10_4_3 0
x_4_10_4_4 0
x_4_10_4_5 0
x_5_6_0_0 0
x_5_6_0_1 0
x_5_6_0_2 0
x_5_6_0_3 1
x_5_6_0_4 1
x_5_6_0_5 0
x_5_6_1_0 0
x_5_6_1_1 1
x_5_6_1_2 0
x_5_6_1_3 0
x_5_6_1_4 0
x_5_6_1_5 0
x_5_6_2_0 0
x_5_6_2_1 0
x_5_6_2_2 0
x_5_6_2_3 0
x_5_6_2_4 0
x_5_6_2_5 0
x_5_6_3_0 0
x_5_6_3_1 0
x_5_6_3_2 0
x_5_6_3_3 0
x_5_6_3_4 0
x_5_6_3_5 0
x_5_6_4_0 0
x_5_6_4_1 0
x_5_6_4_2 0
x_5_6_4_3 0
x_5_6_4_4 0
x_5_6_4_5 0
x_5_7_0_0 0
x_5_7_0_1 0
x_5_7_0_2 0
x_5_7_0_3 0
x_5_7_0_4 0
x_5_7_0_5 0
x_5_7_1_0 0
x_5_7_1_1 0
x_5_7_1_2 0
x_5_7_1_3 0
x_5_7_1_4 0
x_5_7_1_5 0
x_5_7_2_0 0
x_5_7_2_1 0
x_5_7_2_2 0
x_5_7_2_3 0
x_5_7_2_4 0
x_5_7_2_5 0
x_5_7_3_0 0
x_5_7_3_1 0
x_5_7_3_2 0
x_5_7_3_3 0
x_5_7_3_4 0
x_5_7_3_5 0
x_5_7_4_0 0
x_5_7_4_1 0
x_5_7_4_2 0
x_5_7_4_3 0
x_5_7_4_4 0
x_5_7_4_5 0
x_5_8_0_0 0
x_5_8_0_1 0
x_5_8_0_2 0
x_5_8_0_3 0
x_5_8_0_4 0
x_5_8_0_5 0
x_5_8_1_0 0
x_5_8_1_1 0
x_5_8_1_2 0
x_5_8_1_3 0
x_5_8_1_4 0
x_5_8_1_5 0
x_5_8_2_0 0
x_5_8_2_1 0
x_5_8_2_2 0
x_5_8_2_3 0
x_5_8_2_4 0
x_5_8_2_5 0
x_5_8_3_0 0
x_5_8_3_1 0
x_5_8_3_2 0
x_5_8_3_3 0
x_5_8_3_4 0
x_5_8_3_5 0
x_5_8_4_0 0
x_5_8_4_1 0
x_5_8_4_2 0
x_5_8_4_3 0
x_5_8_4_4 0
x_5_8_4_5 0
x_5_9_0_0 0
x_5_9_0_1 0
x_5_9_0_2 0
x_5_9_0_3 0
x_5_9_0_4 0
x_5_9_0_5 0
x_5_9_1_0 0
x_5_9_1_1 0
x_5_9_1_2 0
x_5_9_1_3 0
x_5_9_1_4 0
x_5_9_1_5 0
x_5_9_2_0 0
x_5_9_2_1 0
x_5_9_2_2 0
x_5_9_2_3 0
x_5_9_2_4 0
x_5_9_2_5 0
x_5_9_3_0 0
x_5_9_3_1 0
x_5_9_3_2 0
x_5_9_3_3 0
x_5_9_3_4 0
x_5_9_3_5 0
x_5_9_4_0 0
x_5_9_4_1 0
x_5_9_4_2 0
x_5_9_4_3 0
x_5_9_4_4 0
x_5_9_4_5 0
x_5_10_0_0 0
x_5_10_0_1 0
x_5_10_0_2 0
x_5_10_0_3 0
x_5_10_0_4 0
x_5_10_0_5 0
x_5_10_1_0 0
x_5_10_1_1 0
x_5_10_1_2 0
x_5_10_1_3 0
x_5_10_1_4 0
x_5_10_1_5 0
x_5_10_2_0 0
x_5_10_2_1 0
x_5_10_2_2 0
x_5_10_2_3 0
x_5_10_2_4 0
x_5_10_2_5 0
x_5_10_3_0 0
x_5_10_3_1 0
x_5_10_3_2 0
x_5_10_3_3 0
x_5_10_3_4 0
x_5_10_3_5 0
x_5_10_4_0 0
x_5_10_4_1 0
x_5_10_4_2 0
x_5_10_4_3 0
x_5_10_4_4 0
x_5_10_4_5 0
x_6_7_0_0 0
x_6_7_0_1 0
x_6_7_0_2 0
x_6_7_0_3 0
x_6_7_0_4 0
x_6_7_0_5 0
x_6_7_1_0 0
x_6_7_1_1 0
x_6_7_1_2 0
x_6_7_1_3 0
x_6_7_1_4 0
x_6_7_1_5 0
x_6_7_2_0 0
x_6_7_2_1 0
x_6_7_2_2 0
x_6_7_2_3 0
x_6_7_2_4 0
x_6_7_2_5 0
x_6_7_3_0 0
x_6_7_3_1 0
x_6_7_3_2 0
x_6_7_3_3 0
x_6_7_3_4 0
x_6_7_3_5 0
x_6_7_4_0 0
x_6_7_4_1 0
x_6_7_4_2 0
x_6_7_4_3 0
x_6_7_4_4 0
x_6_7_4_5 0
x_6_8_0_0 0
x_6_8_0_1 0
x_6_8_0_2 0
x_6_8_0_3 0
x_6_8_0_4 1
x_6_8_0_5 0
x_6_8_1_0 0
x_6_8_1_1 0
x_6_8_1_2 0
x_6_8_1_3 0
x_6_8_1_4 0
x_6_8_1_5 0
x_6_8_2_0 0
x_6_8_2_1 0
x_6_8_2_2 0
x_6_8_2_3 0
x_6_8_2_4 0
x_6_8_2_5 0
x_6_8_3_0 0
x_6_8_3_1 0
x_6_8_3_2 0
x_6_8_3_3 0
x_6_8_3_4 0
x_6_8_3_5 0
x_6_8_4_0 0
x_6_8_4_1 0
x_6_8_4_2 0
x_6_8_4_3 0
x_6_8_4_4 0
x_6_8_4_5 0
x_6_9_0_0 0
x_6_9_0_1 0
x_6_9_0_2 0
x_6_9_0_3 0
x_6_9_0_4 0
x_6_9_0_5 0
x_6_9_1_0 0
x_6_9_1_1 0
x_6_9_1_2 0
x_6_9_1_3 0
x_6_9_1_4 0
x_6_9_1_5 0
x_6_9_2_0 0
x_6_9_2_1 0
x_6_9_2_2 0
x_6_9_2_3 0
x_6_9_2_4 0
x_6_9_2_5 0
x_6_9_3_0 0
x_6_9_3_1 0
x_6_9_3_2 0
x_6_9_3_3 0
x_6_9_3_4 0
x_6_9_3_5 0
x_6_9_4_0 0
x_6_9_4_1 0
x_6_9_4_2 0
x_6_9_4_3 0
x_6_9_4_4 0
x_6_9_4_5 0
x_6_10_0_0 0
x_6_10_0_1 0
x_6_10_0_2 0
x_6_10_0_3 0
x_6_10_0_4 0
x_6_10_0_5 0
x_6_10_1_0 0
x_6_10_1_1 0
x_6_10_1_2 0
x_6_10_1_3 0
x_6_10_1_4 0
x_6_10_1_5 0
x_6_10_2_0 0
x_6_10_2_1 0
x_6_10_2_2 0
x_6_10_2_3 0
x_6_10_2_4 0
x_6_10_2_5 0
x_6_10_3_0 0
x_6_10_3_1 0
x_6_10_3_2 0
x_6_10_3_3 0
x_6_10_3_4 0
x_6_10_3_5 0
x_6_10_4_0 0
x_6_10_4_1 0
x_6_10_4_2 0
x_6_10_4_3 0
x_6_10_4_4 0
x_6_10_4_5 0
x_7_8_0_0 0
x_7_8_0_1 1
x_7_8_0_2 0
x_7_8_0_3 0
x_7_8_0_4 0
x_7_8_0_5 0
x_7_8_1_0 0
x_7_8_1_1 0
x_7_8_1_2 0
x_7_8_1_3 1
x_7_8_1_4 0
x_7_8_1_5 0
x_7_8_2_0 0
x_7_8_2_1 0
x_7_8_2_2 0
x_7_8_2_3 0
x_7_8_2_4 0
x_7_8_2_5 0
x_7_8_3_0 0
x_7_8_3_1 0
x_7_8_3_2 0
x_7_8_3_3 0
x_7_8_3_4 0
x_7_8_3_5 0
x_7_8_4_0 0
x_7_8_4_1 0
x_7_8_4_2 0
x_7_8_4_3 0
x_7_8_4_4 0
x_7_8_4_5 0
x_7_9_0_0 0
x_7_9_0_1 0
x_7_9_0_2 0
x_7_9_0_3 0
x_7_9_0_4 0
x_7_9_0_5 0
x_7_9_1_0 0
x_7_9_1_1 0
x_7_9_1_2 0
x_7_9_1_3 0
x_7_9_1_4 0
x_7_9_1_5 0
x_7_9_2_0 0
x_7_9_2_1 0
x_7_9_2_2 0
x_7_9_2_3 0
x_7_9_2_4 0
x_7_9_2_5 0
x_7_9_3_0 0
x_7_9_3_1 0
x_7_9_3_2 0
x_7_9_3_3 0
x_7_9_3_4 0
x_7_9_3_5 0
x_7_9_4_0 0
x_7_9_4_1 0
x_7_9_4_2 0
x_7_9_4_3 0
x_7_9_4_4 0
x_7_9_4_5 0
x_7_10_0_0 0
x_7_10_0_1 0
x_7_10_0_2 0
x_7_10_0_3 0
x_7_10_0_4 0
x_7_10_0_5 0
x_7_10_1_0 0
x_7_10_1_1 0
x_7_10_1_2 0
x_7_10_1_3 0
x_7_10_1_4 0
x_7_10_1_5 0
x_7_10_2_0 0
x_7_10_2_1 0
x_7_10_2_2 0
x_7_10_2_3 0
x_7_10_2_4 0
x_7_10_2_5 0
x_7_10_3_0 0
x_7_10_3_1 0
x_7_10_3_2 0
x_7_10_3_3 0
x_7_10_3_4 0
x_7_10_3_5 0
x_7_10_4_0 0
x_7_10_4_1 0
x_7_10_4_2 0
x_7_10_4_3 0
x_7_10_4_4 0
x_7_10_4_5 0
x_8_9_0_0 0
x_8_9_0_1 0
x_8_9_0_2 0
x_8_9_0_3 0
x_8_9_0_4 0
x_8_9_0_5 0
x_8_9_1_0 0
x_8_9_1_1 0
x_8_9_1_2 0
x_8_9_1_3 0
x_8_9_1_4 0
x_8_9_1_5 0
x_8_9_2_0 0
x_8_9_2_1 0
x_8_9_2_2 0
x_8_9_2_3 0
x_8_9_2_4 0
x_8_9_2_5 0
x_8_9_3_0 0
x_8_9_3_1 0
x_8_9_3_2 0
x_8_9_3_3 0
x_8_9_3_4 0
x_8_9_3_5 0
x_8_9_4_0 0
x_8_9_4_1 0
x_8_9_4_2 0
x_8_9_4_3 0
x_8_9_4_4 0
x_8_9_4_5 0
x_8_10_0_0 0
x_8_10_0_1 0
x_8_10_0_2 0
x_8_10_0_3 0
x_8_10_0_4 0
x_8_10_0_5 0
x_8_10_1_0 0
x_8_10_1_1 0
x_8_10_1_2 0
x_8_10_1_3 0
x_8_10_1_4 0
x_8_10_1_5 0
x_8_10_2_0 0
x_8_10_2_1 0
x_8_10_2_2 0
x_8_10_2_3 0
x_8_10_2_4 0
x_8_10_2_5 0
x_8_10_3_0 0
x_8_10_3_1 0
x_8_10_3_2 0
x_8_10_3_3 0
x_8_10_3_4 0
x_8_10_3_5 0
x_8_10_4_0 0
x_8_10_4_1 0
x_8_10_4_2 0
x_8_10_4_3 0
x_8_10_4_4 0
x_8_10_4_5 0
x_9_10_0_0 0
x_9_10_0_1 0
x_9_10_0_2 0
x_9_10_0_3 0
x_9_10_0_4 0
x_9_10_0_5 0
x_9_10_1_0 0
x_9_10_1_1 0
x_9_10_1_2 0
x_9_10_1_3 0
x_9_10_1_4 0
x_9_10_1_5 0
x_9_10_2_0 0
x_9_10_2_1 0
x_9_10_2_2 0
x_9_10_2_3 0
x_9_10_2_4 0
x_9_10_2_5 0
x_9_10_3_0 0
x_9_10_3_1 0
x_9_10_3_2 0
x_9_10_3_3 1
x_9_10_3_4 0
x_9_10_3_5 0
x_9_10_4_0 0
x_9_10_4_1 0
x_9_10_4_2 0
x_9_10_4_3 0
x_9_10_4_4 0
x_9_10_4_5 0
